c --- [ banner ] -------------------------------------------------------------
c 
c CaDiCaL Radically Simplified CDCL SAT Solver
c Copyright (c) 2016-2021 A. Biere, M. Fleury, N. Froleyks
c 
c Version 1.5.2 a5f15211db36c3956764e18194dd5bd63bf3b5e6
c g++ (GCC) 9.3.0 -Wall -Wextra -O3 -DNDEBUG
c Fri Oct 21 01:27:37 EDT 2022 Linux gra-login3 3.10.0-1160.66.1.el7.x86_64 x86_64
c 
c --- [ limit ] --------------------------------------------------------------
c 
c setting conflict limit to 200000 conflicts (due to '200000')
c 
c --- [ parsing input ] ------------------------------------------------------
c 
c reading DIMACS file from '23.cubes246.adj'
c opening file to read '23.cubes246.adj'
c found 'p cnf 5320 914894' header
c parsed 914894 clauses in 8.23 seconds process time
c closing file '23.cubes246.adj'
c after reading 637830002 bytes 608.3 MB
c 
c --- [ options ] ------------------------------------------------------------
c 
c all options are set to their default value
c 
c --- [ solving ] ------------------------------------------------------------
c 
c time measured in process time since initialization
c 
c  seconds   reductions  redundant  irredundant
c          MB    restarts       trail      variables
c           level   conflicts       glue        remaining
c 
c *  8.24 633  0 0   0    0    0  0% 0 914847 2149 40%
c {  8.58 653  0 0   0    0    0  0% 0 914847 2149 40%
c i  9.02 679 916 0   1   34   25 31% 4 914847 2136 40%
c i 10.72 712 409 0  14   98   80 28% 34 914847 2135 40%
c i 11.61 718 245 0  34  188  158 28% 44 914847 2133 40%
c i 11.89 722 221 0  42  215  179 28% 43 914847 2132 40%
c i 11.98 723 220 0  42  223  186 28% 44 914847 2131 40%
c i 12.23 723 207 0  45  256  211 27% 44 914847 2128 40%
c i 12.31 724 203 0  45  266  220 27% 43 914847 2127 40%
c i 12.51 724 189 0  51  300  252 28% 46 914847 2126 40%
c - 14.19 705 189 1  51  300  252 28% 46 314992 2126 40%
c i 14.30 706 177 1  51  327  269 28% 43 314992 2124 40%
c i 14.62 706 139 1  51  480  394 27% 39 314992 2123 40%
c i 14.66 706 137 1  51  501  410 27% 39 314992 2122 40%
c i 14.71 706 134 1  52  528  433 27% 39 314992 2121 40%
c i 14.80 706 129 1  54  581  472 27% 39 314992 2120 40%
c i 14.87 706 119 1  56  687  561 27% 39 314992 2119 40%
c i 15.09 707 115 1  68  819  663 27% 39 314992 2118 40%
c i 15.12 707 110 1  68  877  705 27% 38 314992 2117 40%
c } 15.16 707 100 1  68 1000  794 27% 36 314992 2117 40%
c 
c  seconds   reductions  redundant  irredundant
c          MB    restarts       trail      variables
c           level   conflicts       glue        remaining
c 
c [ 15.16 707  0 1  68 1000  794  0% 0 314992 2117 40%
c O 15.17 707  9 1  68 1003  795 17% 6 314992 2117 40%
c i 15.17 707  9 1  68 1003  795 17% 6 314992 2115 40%
c i 15.17 707  7 1  68 1004  795 14% 4 314992 2072 39%
c i 15.17 707  5 1  68 1005  795 13% 3 314992 2041 38%
c i 15.17 707  5 1  68 1006  795 12% 3 314992 2028 38%
c i 15.27 707 12 1  68 1016  803 21% 9 314992 2027 38%
c i 15.30 707 19 1  68 1032  818 26% 13 314992 2026 38%
c i 15.33 707 25 1  68 1058  841 29% 20 314992 2025 38%
c i 15.33 707 27 1  68 1070  850 29% 21 314992 2024 38%
c i 15.36 707 29 1  68 1102  873 30% 24 314992 2023 38%
c i 15.37 707 30 1  68 1135  900 30% 24 314992 2022 38%
c i 15.37 707 29 1  68 1137  897 30% 24 314992 2021 38%
c i 15.38 707 29 1  68 1151  906 30% 24 314992 2020 38%
c i 15.42 707 29 1  68 1181  924 30% 24 314992 2019 38%
c - 16.01 774 29 2  68 1200  810 30% 24 313280 2019 38%
c i 16.09 774 29 2  68 1233  833 30% 24 313280 2018 38%
c i 16.12 774 29 2  68 1241  840 30% 24 313280 2017 38%
c i 16.13 774 29 2  68 1250  848 30% 24 313280 2016 38%
c i 16.14 774 29 2  68 1257  854 30% 24 313280 2015 38%
c 
c  seconds   reductions  redundant   irredundant
c          MB    restarts       trail       variables
c           level   conflicts       glue         remaining
c 
c i 16.15 774 29 2  68 1276  866 30% 24 313280 2014 38%
c i 16.17 774 28 2  68 1304  888 30% 23 313280 2013 38%
c i 16.18 774 28 2  68 1333  907 30% 23 313280 2012 38%
c i 16.19 774 28 2  68 1342  906 30% 23 313280 2011 38%
c i 16.22 774 28 2  68 1430  959 30% 23 313280 2010 38%
c i 16.25 774 28 2  68 1520 1030 30% 24 313280 2009 38%
c i 16.27 774 28 2  68 1575 1066 30% 24 313280 2008 38%
c i 16.29 774 28 2  68 1653 1116 30% 23 313280 2007 38%
c i 16.54 774 24 2  69 2331 1504 30% 21 313280 2006 38%
c i 16.55 774 24 2  69 2355 1521 30% 21 313280 2005 38%
c i 16.59 774 24 2  69 2441 1578 30% 21 313280 2004 38%
c i 16.59 774 24 2  69 2447 1583 30% 21 313280 2003 38%
c i 16.61 774 24 2  69 2482 1599 30% 21 313280 2002 38%
c i 16.62 774 24 2  69 2525 1629 30% 21 313280 2001 38%
c - 17.03 771 24 3  69 2546 1204 30% 21 313226 2001 38%
c ] 17.43 771 25 3  69 3001 1507 55% 22 313226 2001 38%
c { 17.43 771 100 3  69 3001 1507 73% 36 313226 2001 38%
c F 17.44 771 99 3  69 3005 1510 73% 36 313226 2001 38%
c i 17.59 771 97 3  69 3034 1536 72% 36 313226 2000 38%
c i 17.66 771 97 3  69 3051 1549 71% 36 313226 1999 38%
c 
c  seconds   reductions  redundant   irredundant
c          MB    restarts       trail       variables
c           level   conflicts       glue         remaining
c 
c i 17.68 771 97 3  69 3057 1554 71% 36 313226 1998 38%
c i 17.74 771 97 3  69 3094 1580 70% 36 313226 1997 38%
c i 18.26 771 95 3  97 3267 1700 66% 36 313226 1996 38%
c i 18.33 771 95 3  97 3295 1726 66% 37 313226 1995 38%
c i 18.38 771 95 3 100 3309 1738 65% 37 313226 1994 37%
c i 18.40 771 95 3 105 3324 1752 65% 37 313226 1993 37%
c i 18.41 771 95 3 106 3327 1754 65% 37 313226 1992 37%
c i 18.54 771 95 3 116 3377 1783 64% 38 313226 1991 37%
c i 18.67 771 97 3 124 3413 1813 64% 39 313226 1990 37%
c i 18.71 771 97 3 127 3434 1828 63% 39 313226 1989 37%
c i 18.71 771 97 3 128 3438 1831 63% 39 313226 1988 37%
c i 18.78 771 97 3 134 3460 1852 63% 40 313226 1987 37%
c i 19.46 771 88 3 171 3963 2305 60% 39 313226 1986 37%
c - 19.89 767 78 4 172 4341 1897 59% 37 313181 1986 37%
c i 19.99 767 77 4 172 4408 1949 59% 36 313181 1985 37%
c 2 20.61 767 69 4 172 5000 2993 57% 35 313152 1978 37%
c p 22.10 767 69 4 172 5000 4742 57% 35 313152 1942 37%
c d 22.48 767 69 4 172 5000 4717 57% 35 245124 1941 36%
c # 22.81 767 57 4 172 6006 5439 57% 31 245124 1941 36%
c - 24.60 738 59 5 243 6584 2633 55% 32 245124 1941 36%
c 
c  seconds   reductions  redundant   irredundant
c          MB    restarts       trail       variables
c           level   conflicts       glue         remaining
c 
c } 25.11 738 58 5 278 7002 2998 55% 32 245124 1941 36%
c [ 25.11 738 25 5 278 7002 2998 55% 22 245124 1941 36%
c - 25.91 739 33 6 279 9084 3041 55% 28 245124 1941 36%
c I 26.28 739 34 6 280 10008 3718 55% 29 245124 1941 36%
c - 27.44 739 36 7 282 12001 3620 54% 30 245124 1941 36%
c p 29.22 739 37 7 283 15000 8682 53% 31 245124 1941 36%
c ] 29.30 739 37 7 283 15003 8685 53% 31 245124 1941 36%
c { 29.30 739 58 7 283 15003 8685 55% 32 245124 1941 36%
c B 29.35 739 58 7 283 15010 8690 55% 32 245124 1941 36%
c - 30.44 739 58 8 336 15335 4242 55% 32 245124 1941 36%
c s 31.85 739 52 8 367 17472 5789 53% 31 243694 1941 36%
c v 34.33 739 52 8 367 17472 5789 53% 31 243686 1941 36%
c t 34.38 739 52 8 367 17472 5770 53% 31 243677 1941 36%
c e 35.17 739 52 8 367 17472 5609 53% 31 241485 894 17%
c s 35.26 739 52 8 367 17472 5609 53% 31 241076 894 17%
c - 37.03 645 47 9 367 19086 4722 70% 28 241076 894 17%
c W 37.91 645 43 9 367 21012 6200 69% 27 241076 894 17%
c - 40.86 645 43 10 555 23236 5452 69% 27 241076 894 17%
c - 46.36 645 42 11 784 27801 6240 69% 26 241076 894 17%
c F 46.45 645 42 11 784 28013 6375 69% 26 241076 894 17%
c 
c  seconds   reductions    redundant   irredundant
c          MB     restarts        trail       variables
c           level     conflicts       glue        remaining
c 
c p 50.32 645 42 11 924 30001 9921 69% 25 241076 893 17%
c } 51.09 645 41 11 934 31003 10728 69% 25 241076 893 17%
c [ 51.09 645 37 11 934 31003 10728 119% 31 241076 893 17%
c - 51.95 645 34 12 934 32780 6765 109% 28 241073 893 17%
c B 53.08 645 30 12 937 36015 8593 99% 25 241073 893 17%
c - 53.79 645 31 13 938 38171 7131 95% 26 241073 893 17%
c - 55.35 645 32 14 941 43976 8160 89% 27 241073 893 17%
c W 56.32 645 32 14 941 45018 8871 88% 27 241073 893 17%
c s 57.30 645 31 14 942 49773 12233 85% 26 240358 893 17%
c v 59.63 645 31 14 942 49773 12233 85% 26 240350 893 17%
c e 60.46 646 31 14 942 49773 12232 85% 26 240346 889 17%
c s 60.59 646 31 14 942 49773 12231 85% 26 239655 889 17%
c p 62.26 646 31 14 942 50003 14578 85% 26 239655 889 17%
c - 62.46 646 31 15 942 50199 8507 85% 26 239655 889 17%
c O 63.51 646 31 15 943 55020 11771 82% 27 239655 889 17%
c - 64.01 646 31 16 945 56821 8831 82% 26 239655 889 17%
c ] 65.58 646 30 16 949 63004 12778 80% 26 239655 889 17%
c { 65.58 646 41 16 949 63004 12778 69% 25 239655 889 17%
c - 65.84 646 41 17 949 63856 8896 69% 25 239655 889 17%
c B 67.75 646 40 17 1028 66024 10475 69% 25 239655 889 17%
c 
c  seconds   reductions     redundant   irredundant
c          MB     restarts         trail       variables
c           level      conflicts       glue        remaining
c 
c - 69.93 646 37 18 1029 71306 9802 70% 24 239655 889 17%
c p 71.79 646 35 18 1084 75004 14483 70% 24 239655 889 17%
c W 72.86 646 34 18 1097 78025 16555 71% 24 239655 889 17%
c - 73.28 646 34 19 1117 79169 10361 71% 24 239655 889 17%
c - 80.33 646 33 20 1441 87449 11166 71% 23 239655 889 17%
c # 81.42 646 32 20 1446 91029 13598 71% 23 239655 889 17%
c - 84.76 646 31 21 1591 96140 11723 71% 22 239655 889 17%
c p 87.68 646 29 21 1641 105005 19981 71% 21 239655 889 17%
c B 87.84 646 29 21 1641 105031 19997 71% 21 239655 889 17%
c - 88.74 646 29 22 1691 105246 11770 71% 21 239655 889 17%
c - 92.27 646 28 23 1845 114769 11810 71% 21 239655 889 17%
c W 97.48 646 28 23 2085 120033 15316 71% 21 239655 889 17%
c - 98.84 741 27 24 2089 124702 12686 71% 20 239655 889 17%
c } 99.49 741 27 24 2098 127005 14376 71% 20 239655 889 17%
c [ 99.49 741 30 24 2098 127005 14376 80% 26 239655 889 17%
c - 101.63 646 29 25 2102 135049 13454 78% 25 239655 889 17%
c B 102.01 646 29 25 2103 136034 14053 78% 24 239655 889 17%
c p 104.18 646 31 25 2105 140008 20042 78% 27 239655 889 17%
c - 105.88 646 31 26 2106 145810 14988 77% 27 239655 889 17%
c W 108.50 646 33 26 2107 153037 20220 76% 28 239655 889 17%
c 
c  seconds    reductions       redundant   irredundant
c           MB     restarts           trail       variables
c            level      conflicts         glue        remaining
c 
c - 109.87 743 33 27 2107 156984 15619 76% 28 239655 889 17%
c - 113.19 646 33 28 2108 168574 16176 75% 29 239655 889 17%
c I 113.99 646 34 28 2110 171043 17839 75% 29 239655 889 17%
c p 119.13 646 35 28 2114 180012 27657 74% 30 239655 889 17%
c - 119.63 646 35 29 2114 180579 17283 74% 31 239655 889 17%
c B 123.48 646 37 29 2121 190045 23568 74% 32 239655 889 17%
c - 124.40 646 36 30 2121 192995 16619 74% 31 239655 889 17%
c ] 126.04 646 36 30 2122 200000 20677 73% 31 239655 889 17%
c ? 126.04 646 36 30 2122 200000 20677 73% 31 239655 889 17%
c 
c --- [ writing output ] -----------------------------------------------------
c 
c writing simplified CNF to DIMACS file 'simp/23.cubes246.adj.simp1'
c * 126.04 646 36 30 2122 200000 20677 73% 31 239655 889 17%
c opening file to write 'simp/23.cubes246.adj.simp1'
c writing 'p cnf 5320 239655' header
c closing file 'simp/23.cubes246.adj.simp1'
c after writing 105840542 bytes 100.9 MB
c wrote 239655 clauses in 0.85 seconds process time
c 
c --- [ writing extension ] --------------------------------------------------
c 
c writing extension stack to 'simp/23.cubes246.adj.ext1'
c opening file to write 'simp/23.cubes246.adj.ext1'
c closing file 'simp/23.cubes246.adj.ext1'
c after writing 71751 bytes 0.1 MB
c wrote 3127 witnesses in 0.00 seconds process time
c 
c --- [ result ] -------------------------------------------------------------
c 
c UNKNOWN
c 
c --- [ run-time profiling ] -------------------------------------------------
c 
c process time taken by individual solving procedures
c (percentage relative to process time for solving)
c 
c       100.50   85.31% search
c        59.01   50.09% unstable
c        38.87   33.00% stable
c        17.30   14.69% simplify
c         8.23    6.99% parse
c         7.71    6.54% probe
c         4.88    4.14% vivify
c         2.97    2.52% elim
c         2.28    1.93% walk
c         0.43    0.36% subsume
c         0.35    0.30% lucky
c         0.20    0.17% ternary
c   =================================
c       117.80   92.84% solve
c 
c last line shows process time for solving
c (percentage relative to total process time)
c 
c --- [ statistics ] ---------------------------------------------------------
c 
c chronological:             31000        15.50 %  of conflicts
c conflicts:                200000      1697.79    per second
c decisions:                353248      2998.70    per second
c eliminated:                 1051        19.76 %  of all variables
c fixed:                       535        10.06 %  of all variables
c learned:                  196023        98.01 %  per conflict
c learned_lits:           40492606       100.00 %  learned literals
c minimized:                     0         0.00 %  learned literals
c shrunken:               24535817        60.59 %  learned literals
c minishrunken:            3353581         8.28 %  learned literals
c propagations:           11810991         0.10 M  per second
c reduced:                  116300        58.15 %  per conflict
c rephased:                     19     10526.32    interval
c restarts:                   2122        94.25    interval
c stabilizing:                   4        57.50 %  of conflicts
c substituted:                   8         0.15 %  of all variables
c subsumed:                  62122         2.67 %  of all clauses
c strengthened:               6004         0.26 %  of all clauses
c ternary:                    4626         0.75 %  of resolved
c vivified:                     32         0.00 %  of all clauses
c walked:                        5     40000.00    interval
c weakened:                   2592         3.13    average size
c 
c seconds are measured in process time for solving
c 
c --- [ resources ] ----------------------------------------------------------
c 
c total process time since initialization:       126.89    seconds
c total real time since initialization:          126.95    seconds
c maximum resident set size of process:          901.65    MB
c 
c --- [ shutting down ] ------------------------------------------------------
c 
c exit 0
WARNING! DIMACS header mismatch: wrong number of variables.
============================[ Problem Statistics ]=============================
|                                                                             |
|  Number of variables:          2942                                         |
|  Number of clauses:          239655                                         |
|  Parse time:                   1.44 s                                       |
|  Simplification time:          0.03 s                                       |
|                                                                             |
============================[ Search Statistics ]====================================================
| Conflicts |          ORIGINAL         |          LEARNT          | Num Sols |      SUBGRAPHS      |
|           |    Vars  Clauses Literals |    Limit  Clauses Lit/Cl |          | Canonical Noncanon. |
=====================================================================================================
|       102 |    2866   239657 23414630 |     2000      102     91 |        0 |        15         2 |
|       255 |    2866   239660 23414673 |     2000      255    100 |        0 |        31         5 |
|       485 |    2866   239665 23414746 |     2000      485    102 |        0 |        37        10 |
|       849 |    2866   239692 23415872 |     2000      849    101 |        0 |        60        37 |
|      1362 |    2866   239699 23416000 |     2000     1362    108 |        0 |        77        44 |
|      2176 |    2866   239754 23417042 |     3602     1178     77 |        0 |       102        99 |
|      3390 |    2866   239829 23418767 |     3602     2392     88 |        0 |       122       174 |
|      5124 |    2866   239855 23419336 |     5007     2331     75 |        0 |       166       200 |
|      7735 |    2866   239904 23420479 |     5007     4942    104 |        0 |       193       249 |
|     12145 |    2866   240470 23430005 |     7556     3701     50 |        0 |       394       815 |
|     18024 |    2866   240583 23433162 |     8782     5806     72 |        0 |       470       928 |
|     27043 |    2866   240953 23438399 |    11197     5440     39 |        0 |       630      1298 |
|     40432 |    2866   241368 23446514 |    13611     7043     43 |        0 |       782      1713 |
|     61232 |    2866   242707 23471801 |    16007    13639     69 |        0 |      1278      3052 |
|     91460 |    2866   243743 23495908 |    19614    18074     67 |        0 |      1766      4088 |
|    136201 |    2866   244695 23516157 |    24411    20012     57 |        0 |      2304      5040 |
|    203352 |    2866   246162 23546719 |    30412    20164     51 |        0 |      3167      6507 |
|    303507 |    2866   247791 23582980 |    37610    20117     35 |        0 |      4519      8136 |
|    455699 |    2866   252194 23675697 |    46015    28114     48 |        0 |      8122     12539 |
|    685318 |    2866   260130 23857540 |    56826    29144     34 |        0 |     14685     20475 |
|   1040800 |    2866   283087 24427825 |    70016    39216     44 |        0 |     23041     43432 |
|   1554587 |    2866   298086 24801293 |    85621    51208     48 |        0 |     29184     58431 |
|   2331790 |    2866   327107 25496454 |   104814    71604     55 |        0 |     40708     87452 |
|   3516271 |    2866   389314 27048412 |   128819    94090     60 |        0 |     57456    149659 |
|   5231077 |    2866   420709 27743678 |   157629    97706     49 |        1 |     68907    181053 |
|   7820724 |    2866   485240 29072566 |   192434   158558     66 |        7 |    101513    245578 |
|  11734518 |    2866   611359 31854064 |   235622   231140     69 |        8 |    159359    371696 |
|  17506246 |    2859   632216 32457962 |   288407   252053     60 |        8 |    198398    461912 |
|  26208468 |    2859   812169 36143478 |   353218   308886     67 |        8 |    236925    641865 |
=====================================================================================================
Number of solutions   : 9
Canonical subgraphs   : 335932         (19 /sec)
          order  3    : 1              (142857 /sec)
          order  4    : 1              (500000 /sec)
          order  5    : 1              (250000 /sec)
          order  6    : 1              (52632 /sec)
          order  7    : 1              (8475 /sec)
          order  8    : 2              (1271 /sec)
          order  9    : 6              (311 /sec)
          order 10    : 26             (100 /sec)
          order 11    : 117            (31 /sec)
          order 12    : 620            (17 /sec)
          order 13    : 3804           (16 /sec)
          order 14    : 31217          (22 /sec)
          order 15    : 174127         (19 /sec)
          order 16    : 94384          (20 /sec)
          order 17    : 26472          (18 /sec)
          order 18    : 3894           (19 /sec)
          order 19    : 681            (23 /sec)
          order 20    : 568            (27 /sec)
          order 21    : 9              (1 /sec)
Noncanonical subgraphs: 1366967        (149 /sec)
          order  3    : 0              (-nan /sec)
          order  4    : 0              (-nan /sec)
          order  5    : 0              (-nan /sec)
          order  6    : 0              (-nan /sec)
          order  7    : 0              (-nan /sec)
          order  8    : 0              (-nan /sec)
          order  9    : 0              (-nan /sec)
          order 10    : 0              (-nan /sec)
          order 11    : 0              (-nan /sec)
          order 12    : 0              (-nan /sec)
          order 13    : 8442           (5936 /sec)
          order 14    : 140006         (879 /sec)
          order 15    : 185108         (1199 /sec)
          order 16    : 1025528        (117 /sec)
          order 17    : 7261           (70 /sec)
          order 18    : 13             (393 /sec)
          order 19    : 6              (289 /sec)
          order 20    : 0              (-nan /sec)
Canonicity checking   : 17306.4 s
Noncanonicity checking: 9199.9 s
Total canonicity time : 26506.3 s
database reductions   : 349
restarts              : 51450
conflicts             : 37307995       (863 /sec)
decisions             : 46501126       (0.00 % random) (1076 /sec)
propagations          : 1740587213     (40264 /sec)
conflict literals     : 4021086255     (57.08 % deleted)
actual reward         : 0.274878
Memory used           : 709.00 MB
CPU time              : 43229 s

UNSATISFIABLE
